benchmarks_CP/INST_49x49/50/inst49x49_50_54.dzn
S=7;
start=[|
-1,	45,	21,	-1,	44,	48,	-1,	-1,	-1,	15,	31,	42,	-1,	43,	10,	-1,	-1,	13,	-1,	12,	-1,	26,	36,	-1,	24,	20,	39,	-1,	40,	1,	-1,	-1,	-1,	34,	27,	18,	-1,	-1,	30,	-1,	-1,	-1,	-1,	-1,	17,	-1,	25,	5,	3|
47,	49,	-1,	-1,	-1,	-1,	8,	-1,	32,	28,	-1,	40,	-1,	2,	18,	34,	-1,	33,	-1,	1,	-1,	42,	-1,	-1,	-1,	16,	48,	6,	5,	-1,	-1,	-1,	17,	3,	37,	-1,	35,	-1,	-1,	43,	31,	-1,	11,	-1,	-1,	-1,	46,	22,	36|
-1,	16,	-1,	33,	30,	-1,	-1,	44,	3,	38,	18,	-1,	-1,	-1,	-1,	40,	17,	43,	-1,	-1,	42,	-1,	-1,	46,	12,	-1,	7,	-1,	-1,	24,	32,	-1,	-1,	-1,	-1,	-1,	11,	-1,	-1,	14,	-1,	-1,	6,	-1,	-1,	-1,	2,	-1,	41|
-1,	-1,	-1,	-1,	-1,	-1,	17,	46,	-1,	1,	-1,	-1,	41,	36,	20,	-1,	28,	-1,	39,	-1,	48,	8,	15,	11,	-1,	33,	-1,	45,	-1,	2,	13,	-1,	-1,	10,	-1,	47,	12,	-1,	-1,	19,	3,	21,	-1,	-1,	-1,	-1,	-1,	29,	26|
19,	6,	-1,	-1,	-1,	1,	-1,	48,	12,	-1,	16,	30,	11,	-1,	49,	-1,	-1,	24,	-1,	8,	-1,	-1,	22,	-1,	-1,	-1,	-1,	4,	42,	-1,	20,	-1,	38,	15,	-1,	-1,	-1,	33,	36,	-1,	-1,	29,	44,	-1,	21,	37,	40,	39,	13|
20,	12,	-1,	7,	-1,	42,	26,	-1,	45,	-1,	4,	39,	29,	-1,	22,	14,	21,	32,	47,	-1,	-1,	-1,	-1,	13,	-1,	-1,	-1,	3,	49,	-1,	43,	8,	-1,	46,	25,	-1,	-1,	9,	44,	16,	-1,	-1,	24,	-1,	31,	1,	-1,	38,	18|
-1,	-1,	-1,	-1,	9,	3,	-1,	8,	49,	-1,	6,	-1,	-1,	-1,	29,	-1,	38,	46,	15,	7,	-1,	1,	47,	14,	-1,	-1,	-1,	-1,	39,	-1,	-1,	21,	-1,	30,	-1,	-1,	26,	25,	-1,	-1,	-1,	4,	-1,	-1,	-1,	35,	10,	45,	42|
-1,	18,	-1,	-1,	-1,	13,	1,	-1,	-1,	35,	-1,	28,	-1,	-1,	40,	30,	41,	17,	34,	-1,	-1,	-1,	-1,	-1,	-1,	38,	-1,	-1,	31,	10,	-1,	15,	45,	-1,	8,	-1,	48,	-1,	-1,	44,	-1,	-1,	25,	46,	-1,	-1,	21,	-1,	-1|
33,	44,	12,	25,	-1,	9,	49,	15,	-1,	-1,	-1,	45,	-1,	-1,	-1,	-1,	-1,	23,	22,	-1,	-1,	-1,	-1,	-1,	-1,	8,	-1,	5,	17,	-1,	4,	-1,	7,	6,	-1,	-1,	-1,	-1,	-1,	-1,	28,	-1,	26,	-1,	24,	-1,	1,	2,	16|
22,	11,	-1,	35,	-1,	-1,	5,	34,	-1,	41,	-1,	-1,	-1,	-1,	-1,	-1,	27,	-1,	12,	42,	-1,	-1,	21,	-1,	30,	-1,	-1,	26,	28,	-1,	-1,	-1,	48,	14,	-1,	-1,	36,	-1,	15,	-1,	18,	-1,	-1,	8,	-1,	29,	-1,	-1,	37|
15,	39,	6,	21,	17,	31,	-1,	-1,	48,	47,	-1,	-1,	8,	29,	-1,	-1,	-1,	-1,	-1,	38,	-1,	-1,	2,	-1,	-1,	46,	-1,	27,	34,	33,	18,	30,	23,	-1,	-1,	25,	45,	-1,	40,	49,	7,	-1,	14,	-1,	41,	-1,	-1,	-1,	-1|
3,	-1,	38,	-1,	45,	7,	32,	21,	-1,	-1,	24,	-1,	31,	37,	11,	26,	-1,	-1,	46,	-1,	-1,	-1,	-1,	20,	-1,	41,	4,	-1,	-1,	35,	5,	-1,	-1,	1,	40,	-1,	23,	16,	39,	-1,	12,	-1,	-1,	49,	-1,	-1,	6,	13,	30|
-1,	46,	-1,	8,	-1,	4,	-1,	-1,	-1,	-1,	12,	-1,	-1,	3,	21,	6,	-1,	-1,	28,	-1,	-1,	43,	40,	16,	44,	-1,	32,	-1,	41,	29,	-1,	20,	22,	2,	49,	-1,	38,	14,	-1,	35,	-1,	26,	-1,	-1,	11,	-1,	-1,	33,	-1|
-1,	-1,	-1,	-1,	-1,	-1,	-1,	33,	19,	49,	-1,	18,	27,	-1,	5,	-1,	14,	9,	8,	2,	-1,	45,	-1,	-1,	-1,	-1,	-1,	-1,	-1,	3,	46,	11,	13,	-1,	-1,	43,	21,	20,	37,	-1,	-1,	-1,	-1,	44,	-1,	-1,	-1,	-1,	4|
38,	-1,	-1,	-1,	-1,	-1,	33,	35,	-1,	25,	-1,	-1,	10,	-1,	-1,	20,	-1,	6,	36,	13,	23,	-1,	31,	-1,	-1,	29,	-1,	32,	-1,	18,	16,	-1,	19,	24,	39,	-1,	-1,	37,	12,	-1,	15,	40,	-1,	-1,	-1,	45,	-1,	27,	-1|
-1,	-1,	-1,	-1,	35,	-1,	44,	43,	-1,	31,	38,	8,	34,	-1,	26,	12,	24,	-1,	4,	15,	32,	-1,	23,	-1,	33,	-1,	-1,	39,	27,	25,	-1,	-1,	30,	21,	-1,	14,	29,	17,	-1,	-1,	-1,	19,	-1,	-1,	5,	-1,	9,	6,	-1|
-1,	26,	48,	4,	46,	-1,	18,	27,	-1,	-1,	-1,	-1,	30,	24,	19,	43,	10,	-1,	29,	-1,	2,	-1,	-1,	-1,	20,	36,	-1,	11,	-1,	-1,	-1,	1,	-1,	23,	-1,	-1,	16,	-1,	-1,	21,	41,	-1,	17,	25,	-1,	-1,	-1,	-1,	35|
-1,	3,	-1,	-1,	43,	27,	14,	-1,	44,	32,	-1,	-1,	-1,	48,	42,	17,	-1,	-1,	7,	40,	-1,	-1,	-1,	38,	-1,	-1,	25,	-1,	-1,	-1,	29,	-1,	20,	8,	2,	35,	24,	11,	-1,	6,	39,	-1,	-1,	31,	16,	26,	-1,	-1,	-1|
21,	-1,	20,	30,	-1,	40,	-1,	16,	-1,	-1,	17,	-1,	2,	5,	-1,	-1,	46,	3,	-1,	27,	33,	15,	6,	18,	-1,	-1,	22,	-1,	-1,	-1,	45,	7,	12,	-1,	-1,	4,	49,	31,	-1,	-1,	-1,	-1,	36,	-1,	-1,	-1,	-1,	-1,	-1|
-1,	41,	-1,	-1,	-1,	-1,	15,	-1,	40,	-1,	19,	37,	42,	-1,	-1,	-1,	22,	-1,	14,	5,	-1,	7,	44,	49,	43,	-1,	-1,	-1,	35,	-1,	-1,	-1,	36,	48,	9,	-1,	25,	27,	13,	34,	-1,	-1,	39,	18,	-1,	46,	20,	4,	29|
-1,	-1,	-1,	-1,	22,	-1,	39,	23,	-1,	20,	-1,	14,	4,	-1,	38,	16,	8,	1,	-1,	-1,	31,	-1,	35,	-1,	-1,	-1,	-1,	-1,	-1,	-1,	26,	-1,	-1,	-1,	-1,	-1,	42,	18,	-1,	30,	47,	45,	33,	15,	10,	-1,	-1,	41,	-1|
8,	17,	28,	47,	38,	-1,	-1,	9,	36,	-1,	46,	21,	-1,	7,	37,	-1,	40,	-1,	-1,	-1,	-1,	49,	-1,	-1,	15,	-1,	-1,	22,	11,	-1,	2,	-1,	-1,	-1,	14,	39,	-1,	34,	3,	25,	30,	-1,	41,	10,	45,	13,	-1,	16,	6|
-1,	-1,	-1,	-1,	5,	15,	7,	-1,	-1,	14,	-1,	-1,	-1,	-1,	47,	24,	33,	29,	45,	17,	-1,	16,	20,	-1,	-1,	-1,	-1,	-1,	43,	4,	-1,	25,	-1,	38,	46,	40,	-1,	-1,	23,	-1,	6,	35,	34,	36,	-1,	30,	22,	-1,	32|
-1,	-1,	-1,	40,	-1,	36,	9,	39,	-1,	-1,	23,	41,	12,	30,	16,	-1,	3,	49,	31,	-1,	46,	-1,	-1,	-1,	-1,	13,	2,	-1,	1,	-1,	-1,	-1,	-1,	-1,	29,	32,	-1,	10,	-1,	-1,	-1,	18,	8,	-1,	-1,	-1,	35,	-1,	-1|
-1,	35,	49,	44,	-1,	-1,	24,	3,	22,	-1,	-1,	-1,	-1,	8,	48,	-1,	34,	2,	-1,	-1,	9,	14,	11,	-1,	10,	25,	-1,	37,	13,	21,	-1,	26,	-1,	36,	-1,	-1,	4,	12,	33,	-1,	43,	27,	31,	5,	-1,	39,	-1,	17,	-1|
-1,	25,	-1,	45,	42,	18,	23,	-1,	-1,	29,	2,	-1,	-1,	-1,	7,	-1,	35,	15,	-1,	43,	-1,	30,	24,	48,	4,	40,	41,	-1,	6,	-1,	49,	-1,	-1,	-1,	-1,	17,	1,	36,	-1,	46,	-1,	8,	-1,	-1,	-1,	-1,	-1,	47,	-1|
37,	-1,	-1,	-1,	41,	21,	6,	-1,	42,	-1,	47,	32,	49,	10,	25,	5,	44,	-1,	11,	-1,	-1,	46,	-1,	7,	17,	-1,	-1,	35,	15,	-1,	8,	45,	-1,	39,	-1,	-1,	-1,	38,	19,	-1,	-1,	20,	2,	-1,	-1,	-1,	26,	-1,	27|
-1,	-1,	-1,	-1,	19,	-1,	48,	11,	-1,	24,	-1,	27,	17,	-1,	8,	-1,	6,	-1,	-1,	21,	-1,	-1,	-1,	23,	-1,	-1,	5,	-1,	9,	37,	-1,	18,	-1,	40,	31,	-1,	-1,	-1,	16,	45,	49,	44,	-1,	38,	-1,	7,	4,	46,	-1|
4,	2,	-1,	-1,	49,	23,	41,	-1,	-1,	-1,	-1,	-1,	36,	15,	24,	-1,	-1,	-1,	-1,	-1,	28,	22,	45,	-1,	-1,	-1,	-1,	-1,	-1,	-1,	-1,	-1,	3,	43,	1,	-1,	33,	-1,	25,	-1,	35,	14,	16,	-1,	-1,	-1,	5,	11,	31|
29,	-1,	-1,	27,	15,	14,	-1,	-1,	-1,	-1,	11,	38,	47,	13,	33,	8,	-1,	41,	-1,	3,	-1,	-1,	-1,	31,	19,	-1,	35,	-1,	-1,	40,	-1,	16,	-1,	-1,	30,	23,	18,	5,	10,	28,	20,	-1,	-1,	-1,	39,	-1,	-1,	-1,	17|
-1,	-1,	-1,	-1,	-1,	-1,	47,	-1,	-1,	-1,	43,	-1,	-1,	-1,	-1,	-1,	45,	-1,	18,	31,	-1,	20,	-1,	29,	-1,	15,	34,	-1,	25,	8,	35,	-1,	10,	-1,	-1,	-1,	-1,	-1,	11,	12,	-1,	-1,	37,	32,	14,	-1,	33,	30,	38|
18,	-1,	25,	-1,	8,	43,	28,	40,	-1,	48,	-1,	-1,	-1,	23,	34,	47,	-1,	-1,	37,	-1,	-1,	-1,	-1,	10,	14,	-1,	-1,	-1,	26,	-1,	17,	-1,	-1,	-1,	-1,	-1,	-1,	42,	-1,	36,	46,	15,	20,	22,	6,	-1,	12,	7,	-1|
-1,	10,	33,	36,	48,	-1,	35,	45,	-1,	-1,	14,	26,	-1,	-1,	-1,	-1,	23,	27,	13,	20,	43,	12,	16,	32,	9,	-1,	38,	44,	29,	6,	-1,	-1,	-1,	-1,	-1,	-1,	-1,	-1,	34,	47,	-1,	-1,	28,	42,	8,	41,	19,	-1,	-1|
-1,	20,	-1,	-1,	-1,	17,	-1,	41,	-1,	-1,	3,	-1,	33,	32,	36,	-1,	-1,	-1,	2,	26,	-1,	-1,	-1,	-1,	-1,	39,	-1,	-1,	-1,	38,	7,	-1,	44,	37,	23,	-1,	6,	-1,	48,	-1,	-1,	-1,	-1,	-1,	46,	49,	47,	15,	-1|
-1,	-1,	44,	5,	-1,	38,	-1,	29,	-1,	16,	39,	4,	-1,	-1,	15,	7,	-1,	-1,	-1,	-1,	-1,	18,	37,	-1,	-1,	24,	-1,	-1,	2,	-1,	42,	-1,	-1,	22,	-1,	26,	8,	-1,	-1,	-1,	45,	49,	-1,	-1,	3,	25,	-1,	-1,	-1|
1,	5,	-1,	-1,	26,	2,	-1,	-1,	6,	8,	41,	-1,	32,	40,	-1,	37,	48,	-1,	3,	-1,	-1,	-1,	-1,	9,	31,	-1,	-1,	-1,	20,	22,	-1,	17,	25,	-1,	4,	45,	43,	-1,	-1,	-1,	-1,	34,	-1,	-1,	36,	-1,	-1,	-1,	-1|
14,	40,	-1,	-1,	10,	16,	-1,	17,	-1,	-1,	25,	47,	23,	-1,	6,	-1,	-1,	-1,	21,	-1,	22,	32,	38,	-1,	49,	45,	-1,	-1,	12,	46,	-1,	28,	-1,	29,	26,	-1,	-1,	4,	-1,	-1,	-1,	-1,	-1,	39,	-1,	5,	-1,	-1,	44|
-1,	-1,	-1,	46,	29,	-1,	3,	-1,	-1,	-1,	42,	43,	-1,	-1,	-1,	-1,	1,	-1,	-1,	-1,	-1,	2,	-1,	37,	41,	6,	-1,	20,	23,	-1,	14,	38,	40,	44,	15,	36,	-1,	39,	-1,	-1,	9,	25,	21,	16,	13,	-1,	-1,	8,	-1|
-1,	32,	-1,	6,	-1,	49,	25,	37,	-1,	-1,	34,	-1,	-1,	-1,	30,	27,	47,	7,	40,	44,	-1,	-1,	17,	-1,	22,	35,	-1,	-1,	16,	9,	-1,	43,	-1,	42,	-1,	12,	-1,	19,	18,	13,	14,	5,	-1,	-1,	-1,	33,	-1,	-1,	45|
30,	47,	4,	42,	-1,	35,	20,	-1,	46,	44,	-1,	-1,	-1,	-1,	14,	-1,	-1,	25,	49,	28,	19,	11,	34,	-1,	-1,	-1,	-1,	12,	8,	7,	-1,	24,	32,	-1,	-1,	37,	-1,	-1,	22,	-1,	40,	38,	10,	41,	-1,	6,	-1,	-1,	1|
36,	-1,	-1,	-1,	-1,	44,	-1,	-1,	-1,	-1,	-1,	-1,	9,	-1,	43,	-1,	-1,	-1,	17,	-1,	8,	-1,	-1,	40,	13,	23,	-1,	42,	-1,	31,	34,	35,	-1,	-1,	-1,	-1,	-1,	-1,	27,	41,	-1,	-1,	-1,	47,	25,	-1,	-1,	32,	48|
27,	8,	-1,	-1,	-1,	34,	-1,	14,	-1,	-1,	35,	-1,	16,	-1,	-1,	-1,	-1,	-1,	9,	29,	38,	47,	30,	15,	7,	-1,	26,	25,	45,	-1,	-1,	49,	21,	33,	18,	-1,	32,	28,	6,	23,	44,	1,	42,	11,	-1,	22,	-1,	24,	40|
44,	36,	-1,	18,	4,	-1,	-1,	32,	21,	-1,	-1,	16,	-1,	42,	12,	-1,	25,	26,	-1,	-1,	45,	3,	9,	34,	5,	-1,	37,	40,	-1,	49,	6,	13,	-1,	27,	-1,	38,	-1,	8,	-1,	-1,	-1,	-1,	1,	28,	20,	17,	-1,	-1,	15|
35,	-1,	8,	-1,	-1,	-1,	-1,	49,	-1,	-1,	-1,	20,	-1,	-1,	46,	22,	-1,	37,	-1,	-1,	-1,	27,	-1,	-1,	-1,	-1,	31,	-1,	10,	15,	-1,	-1,	1,	-1,	3,	41,	-1,	-1,	-1,	-1,	19,	12,	-1,	-1,	7,	40,	24,	-1,	-1|
7,	24,	-1,	20,	16,	37,	-1,	28,	26,	-1,	1,	-1,	19,	-1,	-1,	29,	-1,	-1,	42,	48,	-1,	10,	-1,	33,	-1,	17,	15,	23,	-1,	47,	-1,	-1,	5,	-1,	-1,	21,	27,	-1,	43,	22,	-1,	-1,	-1,	30,	4,	2,	-1,	-1,	-1|
-1,	-1,	-1,	-1,	27,	-1,	-1,	38,	14,	-1,	-1,	11,	-1,	-1,	2,	3,	5,	31,	33,	-1,	-1,	36,	39,	-1,	45,	12,	-1,	16,	18,	44,	21,	-1,	43,	19,	20,	28,	7,	-1,	32,	29,	-1,	-1,	-1,	-1,	37,	-1,	42,	-1,	8|
-1,	-1,	-1,	-1,	-1,	19,	-1,	47,	15,	-1,	-1,	-1,	3,	41,	-1,	-1,	7,	14,	-1,	9,	-1,	44,	32,	-1,	-1,	-1,	-1,	8,	-1,	26,	28,	-1,	-1,	-1,	35,	-1,	20,	23,	17,	37,	24,	-1,	13,	12,	38,	-1,	-1,	25,	-1|
-1,	-1,	-1,	39,	-1,	-1,	-1,	-1,	8,	4,	7,	10,	-1,	-1,	23,	-1,	18,	28,	24,	-1,	16,	35,	-1,	19,	-1,	2,	-1,	-1,	-1,	-1,	25,	-1,	-1,	17,	34,	1,	13,	-1,	-1,	40,	11,	-1,	27,	-1,	-1,	32,	-1,	26,	-1|
-1,	-1,	-1,	17,	-1,	-1,	-1,	-1,	18,	2,	45,	31,	-1,	27,	-1,	-1,	32,	-1,	-1,	-1,	-1,	-1,	7,	22,	48,	-1,	-1,	38,	24,	-1,	-1,	-1,	-1,	-1,	41,	15,	44,	49,	9,	-1,	-1,	-1,	5,	-1,	-1,	36,	-1,	3,	23|];
