sudoku-ls/benchmarks_LEQ/INST_49x49/50/inst49x49_50_54.txt
7
1
-1	-1	21	2	-1	-1	-1	-1	-1	-1	-1	-1	7	43	-1	-1	19	13	16	-1	11	-1	-1	-1	24	20	39	29	40	1	-1	33	-1	34	-1	18	37	6	-1	38	-1	-1	49	4	17	28	25	-1	-1
-1	-1	-1	-1	13	10	8	-1	-1	28	26	-1	-1	2	18	-1	30	33	41	-1	-1	42	25	-1	-1	-1	48	-1	-1	23	-1	-1	17	-1	-1	20	35	-1	45	-1	31	39	11	7	-1	-1	46	-1	-1
-1	-1	15	-1	-1	39	-1	-1	-1	-1	18	34	35	21	45	-1	-1	-1	27	23	42	31	-1	46	-1	37	-1	-1	-1	-1	-1	29	-1	-1	36	-1	11	1	49	-1	22	-1	6	19	47	8	2	20	41
-1	-1	-1	-1	-1	5	-1	46	-1	-1	27	25	41	36	-1	35	28	44	39	-1	48	-1	15	-1	38	-1	-1	-1	-1	2	13	-1	4	-1	7	47	-1	40	42	19	3	21	32	-1	-1	16	-1	29	-1
-1	-1	35	41	14	-1	27	48	12	10	16	30	11	47	-1	-1	26	24	-1	-1	3	-1	22	43	-1	18	-1	-1	-1	-1	-1	31	-1	-1	45	5	46	-1	36	7	23	29	44	-1	-1	-1	40	-1	-1
20	12	40	7	11	-1	-1	-1	45	37	4	-1	29	-1	-1	14	21	32	47	36	6	23	19	13	-1	-1	-1	-1	49	-1	-1	8	-1	46	25	-1	-1	9	44	-1	17	10	24	-1	-1	1	-1	38	-1
-1	43	22	-1	-1	3	-1	8	-1	-1	6	-1	-1	-1	-1	-1	38	46	15	7	5	-1	47	14	40	-1	-1	41	39	16	11	21	18	-1	12	27	-1	25	24	2	32	4	-1	-1	-1	-1	10	45	42
-1	-1	24	23	-1	-1	-1	7	-1	35	-1	-1	-1	11	-1	-1	-1	-1	34	-1	-1	-1	14	-1	36	-1	6	-1	-1	10	9	15	-1	-1	8	33	48	29	-1	-1	-1	-1	-1	46	22	-1	21	-1	-1
33	44	-1	25	-1	-1	49	15	-1	-1	-1	-1	38	14	32	18	31	-1	-1	-1	-1	-1	42	39	-1	8	-1	-1	17	-1	4	-1	-1	-1	-1	-1	19	46	-1	3	-1	-1	26	-1	24	20	1	2	16
22	-1	-1	-1	2	20	5	34	-1	41	10	-1	46	-1	3	49	27	47	12	-1	24	33	21	25	-1	-1	-1	-1	28	19	39	-1	-1	14	38	-1	-1	13	15	9	18	-1	-1	8	23	29	-1	-1	-1
15	39	-1	21	17	-1	-1	26	-1	-1	9	-1	8	29	-1	44	-1	35	19	-1	20	24	-1	-1	-1	-1	-1	-1	34	33	-1	-1	-1	12	43	-1	-1	22	-1	-1	7	-1	-1	3	41	10	36	-1	5
-1	-1	-1	-1	45	-1	-1	21	-1	-1	-1	17	31	37	-1	26	-1	48	-1	33	-1	29	-1	-1	-1	41	-1	9	-1	-1	-1	-1	-1	-1	40	-1	23	16	-1	8	-1	-1	-1	-1	-1	15	6	-1	30
48	-1	-1	-1	37	-1	19	25	1	-1	-1	23	39	3	21	6	-1	-1	28	-1	-1	43	40	16	44	-1	-1	15	-1	-1	-1	-1	22	2	49	-1	-1	-1	31	35	5	-1	-1	-1	11	-1	34	33	47
-1	-1	41	29	-1	30	-1	-1	19	49	-1	-1	27	6	5	39	14	9	-1	-1	-1	-1	48	17	-1	22	12	7	47	-1	46	11	-1	25	16	43	-1	-1	37	24	1	-1	38	44	-1	-1	32	35	4
-1	-1	-1	34	-1	8	-1	-1	11	25	22	-1	10	26	41	-1	49	6	36	13	-1	-1	-1	-1	-1	-1	-1	32	4	18	16	-1	-1	-1	39	44	28	-1	-1	5	15	-1	47	-1	-1	45	48	-1	14
16	-1	1	-1	-1	45	-1	-1	-1	-1	-1	-1	34	-1	26	-1	-1	11	4	-1	-1	41	-1	42	33	47	10	39	27	25	-1	-1	-1	21	13	14	29	17	20	-1	36	19	-1	-1	5	-1	9	6	-1
6	26	-1	4	-1	-1	18	-1	-1	-1	-1	9	30	-1	19	-1	10	-1	29	39	-1	40	12	5	20	36	45	-1	44	14	-1	-1	-1	23	-1	22	16	32	7	-1	-1	3	-1	25	49	-1	8	37	35
-1	-1	-1	10	43	-1	-1	36	44	-1	-1	-1	-1	48	42	17	37	18	-1	-1	-1	34	4	38	-1	-1	25	46	33	5	29	41	-1	-1	2	-1	-1	-1	-1	-1	39	9	12	31	16	-1	23	21	22
-1	-1	-1	30	25	40	29	16	41	39	-1	-1	-1	5	9	48	46	-1	35	-1	33	15	6	-1	8	14	22	-1	-1	34	-1	7	-1	28	-1	-1	-1	-1	26	-1	38	-1	36	24	-1	42	-1	19	11
-1	-1	-1	-1	-1	-1	-1	6	40	-1	19	-1	-1	12	-1	45	22	-1	-1	-1	-1	7	-1	49	-1	-1	-1	-1	35	-1	38	-1	-1	48	-1	8	25	27	-1	34	33	-1	39	-1	-1	46	-1	-1	29
-1	-1	-1	-1	22	-1	-1	-1	29	-1	21	-1	4	-1	-1	16	-1	1	-1	-1	-1	37	-1	-1	3	-1	9	48	-1	43	-1	-1	-1	-1	17	-1	-1	-1	46	30	-1	-1	33	15	10	34	13	-1	-1
8	17	-1	47	-1	29	31	-1	-1	26	-1	-1	-1	-1	-1	-1	-1	-1	1	19	27	49	-1	12	-1	-1	-1	22	11	42	-1	-1	24	-1	14	39	-1	34	3	25	-1	-1	41	-1	45	13	18	16	6
-1	-1	10	13	5	15	7	-1	-1	-1	37	-1	18	-1	-1	24	-1	29	45	17	12	16	-1	-1	39	21	8	1	-1	-1	-1	-1	41	38	46	-1	-1	2	-1	26	6	-1	34	-1	42	30	-1	-1	-1
-1	-1	-1	-1	20	-1	-1	39	25	-1	23	41	-1	30	16	42	-1	49	-1	22	46	-1	27	45	-1	13	-1	19	1	-1	-1	5	-1	-1	-1	-1	15	-1	28	-1	-1	18	-1	-1	-1	-1	-1	-1	-1
46	-1	-1	44	-1	32	24	-1	22	45	-1	6	15	8	-1	38	-1	2	23	41	9	-1	-1	47	-1	-1	18	-1	-1	-1	30	-1	-1	36	19	-1	-1	-1	33	42	43	-1	31	5	-1	39	28	17	20
34	-1	39	45	42	18	-1	-1	-1	-1	-1	33	5	38	-1	-1	-1	-1	-1	43	10	30	-1	-1	4	-1	-1	31	-1	32	49	22	-1	-1	-1	17	-1	-1	-1	46	37	8	-1	9	-1	21	11	47	19
-1	33	-1	-1	-1	21	6	4	42	-1	-1	-1	49	-1	-1	5	-1	-1	-1	-1	-1	-1	-1	7	-1	-1	-1	-1	15	-1	-1	-1	34	39	28	24	-1	-1	19	31	13	-1	2	1	40	48	26	-1	27
2	14	30	-1	19	22	48	-1	-1	24	20	27	17	-1	-1	13	6	-1	32	-1	-1	-1	3	23	26	-1	5	34	-1	37	-1	18	-1	-1	31	29	-1	47	16	45	-1	-1	-1	38	-1	7	-1	-1	-1
-1	2	-1	26	49	23	41	20	37	-1	8	7	-1	-1	-1	-1	-1	-1	-1	46	28	-1	45	-1	47	-1	40	-1	19	13	12	39	-1	-1	-1	9	-1	44	-1	-1	35	14	16	-1	34	-1	5	-1	-1
-1	-1	-1	27	-1	14	-1	42	-1	12	-1	38	47	13	33	-1	9	-1	-1	3	-1	25	1	31	-1	49	35	-1	21	40	36	-1	-1	32	-1	-1	-1	-1	10	-1	20	22	-1	-1	-1	24	-1	-1	17
-1	-1	42	22	3	-1	47	-1	-1	-1	43	-1	-1	-1	17	-1	-1	5	-1	31	-1	-1	-1	29	46	-1	34	-1	25	8	35	-1	10	-1	24	-1	-1	7	-1	-1	-1	-1	-1	-1	14	23	33	30	38
-1	-1	-1	-1	8	43	-1	-1	24	48	-1	-1	-1	-1	34	47	29	-1	37	-1	35	21	-1	10	14	3	-1	-1	-1	-1	17	-1	9	-1	11	-1	39	-1	-1	36	46	-1	20	-1	6	-1	12	-1	-1
40	-1	33	-1	-1	46	-1	-1	-1	30	14	26	-1	-1	39	11	-1	-1	-1	20	-1	12	-1	-1	-1	-1	38	44	-1	6	15	4	49	-1	-1	3	17	-1	-1	47	-1	37	28	-1	-1	-1	19	1	21
-1	-1	-1	19	24	17	21	41	-1	-1	3	-1	33	32	36	25	-1	-1	2	26	40	-1	8	-1	-1	39	42	28	14	38	-1	-1	44	-1	-1	-1	-1	43	-1	-1	-1	-1	45	-1	-1	49	47	15	9
9	-1	44	-1	-1	-1	-1	-1	-1	-1	39	4	-1	46	15	-1	-1	-1	48	-1	1	-1	-1	30	11	24	23	43	-1	-1	42	47	28	-1	-1	26	8	41	21	32	45	-1	35	-1	3	25	27	-1	-1
-1	5	-1	-1	26	2	38	-1	-1	8	-1	-1	32	-1	13	37	-1	16	3	11	-1	-1	33	-1	-1	-1	46	21	-1	22	-1	17	25	47	-1	-1	-1	-1	29	-1	42	-1	30	-1	-1	27	49	-1	12
-1	40	19	-1	-1	-1	13	-1	30	7	-1	-1	-1	31	6	-1	36	42	-1	-1	-1	-1	38	1	49	45	-1	-1	-1	-1	41	28	-1	-1	26	-1	-1	4	8	-1	48	-1	-1	-1	-1	5	-1	-1	44
24	-1	-1	-1	29	11	-1	18	33	-1	-1	-1	48	-1	-1	-1	1	-1	-1	-1	-1	-1	-1	-1	-1	-1	-1	-1	23	30	14	-1	40	-1	-1	-1	-1	39	47	17	-1	-1	-1	16	13	4	-1	8	-1
41	32	-1	-1	-1	49	25	37	38	36	-1	-1	21	-1	-1	27	47	-1	40	44	-1	-1	-1	8	22	-1	29	24	-1	-1	-1	-1	-1	42	-1	-1	2	-1	-1	13	14	-1	46	-1	-1	33	-1	-1	45
30	-1	4	42	39	-1	20	-1	46	-1	5	29	26	45	14	23	15	25	-1	28	-1	11	-1	36	-1	-1	-1	-1	8	7	-1	24	-1	-1	-1	-1	-1	21	-1	33	40	38	10	41	-1	-1	-1	9	-1
36	21	-1	-1	33	44	37	-1	-1	11	28	12	-1	-1	43	46	-1	45	-1	24	8	4	10	-1	13	23	14	42	-1	31	-1	-1	-1	5	-1	49	-1	-1	-1	-1	-1	-1	29	-1	-1	19	-1	32	-1
-1	-1	-1	-1	12	-1	43	14	-1	19	35	-1	16	-1	-1	41	-1	10	9	-1	38	47	-1	-1	7	-1	26	25	-1	36	-1	-1	-1	-1	18	-1	32	28	6	-1	-1	-1	-1	-1	-1	22	31	24	40
44	36	23	-1	-1	47	2	-1	-1	-1	-1	-1	24	42	12	-1	-1	26	43	30	-1	-1	-1	-1	-1	11	37	40	-1	49	-1	13	-1	27	-1	38	-1	-1	-1	-1	-1	33	-1	28	20	-1	41	-1	-1
35	9	-1	-1	-1	33	42	-1	39	5	-1	-1	25	-1	-1	22	11	37	38	6	-1	27	-1	-1	29	4	31	14	-1	15	23	-1	-1	-1	-1	-1	-1	30	-1	18	-1	-1	-1	45	7	40	-1	34	43
-1	-1	13	20	-1	-1	11	-1	26	-1	-1	-1	-1	35	-1	29	-1	-1	-1	48	41	-1	-1	-1	25	-1	-1	23	-1	47	40	12	5	-1	32	-1	27	-1	-1	-1	-1	-1	9	-1	-1	2	14	-1	-1
-1	15	46	1	-1	-1	30	38	14	23	-1	11	-1	-1	2	-1	5	-1	33	4	-1	36	-1	-1	-1	12	24	-1	18	-1	21	9	43	19	-1	-1	7	-1	-1	-1	-1	6	22	-1	37	-1	42	10	-1
45	48	5	43	6	-1	40	47	15	-1	-1	-1	3	41	-1	36	7	14	10	9	-1	-1	-1	21	18	1	30	-1	46	-1	28	2	31	4	-1	42	20	23	-1	37	-1	-1	13	-1	38	-1	-1	-1	49
-1	-1	-1	39	21	-1	22	-1	8	4	7	-1	43	-1	23	-1	-1	28	-1	-1	-1	35	-1	-1	42	-1	20	-1	30	-1	-1	-1	37	-1	-1	1	13	-1	5	-1	11	36	27	-1	-1	32	-1	26	-1
10	29	-1	17	-1	-1	12	30	18	2	45	-1	-1	-1	-1	1	-1	40	-1	47	-1	6	-1	-1	-1	-1	-1	38	24	39	33	-1	8	-1	-1	15	-1	-1	-1	-1	26	-1	-1	-1	19	36	-1	3	-1
49 
18 39 44 33
26 11 31 12
20 10 26 43
23 30 39 14
6 8 30 38
30 19 45 10
26 15 25 36
33 45 18 34
24 7 7 5
1 15 29 16
9 42 25 23
38 18 40 28
12 48 13 17
3 40 20 19
5 34 41 4
43 12 26 9
27 25 35 9
31 19 43 4
7 12 43 16
26 34 36 29
5 45 42 33
43 35 32 44
49 49 21 8
3 30 20 6
46 41 25 26
47 30 26 19
19 20 2 24
32 7 20 15
33 29 26 10
15 45 10 25
32 34 39 3
24 36 44 4
23 17 22 27
39 11 34 32
25 2 15 8
14 11 9 5
49 13 42 31
32 39 45 29
43 40 47 47
3 16 28 34
44 36 20 2
13 10 32 38
27 10 36 37
23 24 31 14
48 38 11 37
17 5 42 36
17 9 46 46
41 49 24 31
23 48 18 12
